(set-logic HORN)
(declare-datatypes ((Nat_616 0)) (((Z_2160 ) (S_505 (unS_724 Nat_616)))))
(declare-fun diseqNat_616 (Nat_616 Nat_616) Bool)
(declare-fun unS_725 (Nat_616 Nat_616) Bool)
(declare-fun isZ_472 (Nat_616) Bool)
(declare-fun isS_472 (Nat_616) Bool)
(assert (forall ((x_56392 Nat_616))
	(unS_725 x_56392 (S_505 x_56392))))
(assert (isZ_472 Z_2160))
(assert (forall ((x_56394 Nat_616))
	(isS_472 (S_505 x_56394))))
(assert (forall ((x_56395 Nat_616))
	(diseqNat_616 Z_2160 (S_505 x_56395))))
(assert (forall ((x_56396 Nat_616))
	(diseqNat_616 (S_505 x_56396) Z_2160)))
(assert (forall ((x_56397 Nat_616) (x_56398 Nat_616))
	(=> (diseqNat_616 x_56397 x_56398)
	    (diseqNat_616 (S_505 x_56397) (S_505 x_56398)))))
(declare-fun add_388 (Nat_616 Nat_616 Nat_616) Bool)
(declare-fun minus_383 (Nat_616 Nat_616 Nat_616) Bool)
(declare-fun le_362 (Nat_616 Nat_616) Bool)
(declare-fun ge_362 (Nat_616 Nat_616) Bool)
(declare-fun lt_382 (Nat_616 Nat_616) Bool)
(declare-fun gt_365 (Nat_616 Nat_616) Bool)
(declare-fun mult_363 (Nat_616 Nat_616 Nat_616) Bool)
(declare-fun div_362 (Nat_616 Nat_616 Nat_616) Bool)
(declare-fun mod_364 (Nat_616 Nat_616 Nat_616) Bool)
(assert (forall ((y_2397 Nat_616))
	(add_388 y_2397 Z_2160 y_2397)))
(assert (forall ((x_56368 Nat_616) (y_2397 Nat_616) (r_435 Nat_616))
	(=> (add_388 r_435 x_56368 y_2397)
	    (add_388 (S_505 r_435) (S_505 x_56368) y_2397))))
(assert (forall ((y_2397 Nat_616))
	(minus_383 Z_2160 Z_2160 y_2397)))
(assert (forall ((x_56368 Nat_616) (y_2397 Nat_616) (r_435 Nat_616))
	(=> (minus_383 r_435 x_56368 y_2397)
	    (minus_383 (S_505 r_435) (S_505 x_56368) y_2397))))
(assert (forall ((y_2397 Nat_616))
	(le_362 Z_2160 y_2397)))
(assert (forall ((x_56368 Nat_616) (y_2397 Nat_616))
	(=> (le_362 x_56368 y_2397)
	    (le_362 (S_505 x_56368) (S_505 y_2397)))))
(assert (forall ((y_2397 Nat_616))
	(ge_362 y_2397 Z_2160)))
(assert (forall ((x_56368 Nat_616) (y_2397 Nat_616))
	(=> (ge_362 x_56368 y_2397)
	    (ge_362 (S_505 x_56368) (S_505 y_2397)))))
(assert (forall ((y_2397 Nat_616))
	(lt_382 Z_2160 (S_505 y_2397))))
(assert (forall ((x_56368 Nat_616) (y_2397 Nat_616))
	(=> (lt_382 x_56368 y_2397)
	    (lt_382 (S_505 x_56368) (S_505 y_2397)))))
(assert (forall ((y_2397 Nat_616))
	(gt_365 (S_505 y_2397) Z_2160)))
(assert (forall ((x_56368 Nat_616) (y_2397 Nat_616))
	(=> (gt_365 x_56368 y_2397)
	    (gt_365 (S_505 x_56368) (S_505 y_2397)))))
(assert (forall ((y_2397 Nat_616))
	(mult_363 Z_2160 Z_2160 y_2397)))
(assert (forall ((x_56368 Nat_616) (y_2397 Nat_616) (r_435 Nat_616) (z_2161 Nat_616))
	(=>	(and (mult_363 r_435 x_56368 y_2397)
			(add_388 z_2161 r_435 y_2397))
		(mult_363 z_2161 (S_505 x_56368) y_2397))))
(assert (forall ((x_56368 Nat_616) (y_2397 Nat_616))
	(=> (lt_382 x_56368 y_2397)
	    (div_362 Z_2160 x_56368 y_2397))))
(assert (forall ((x_56368 Nat_616) (y_2397 Nat_616) (r_435 Nat_616) (z_2161 Nat_616))
	(=>	(and (ge_362 x_56368 y_2397)
			(minus_383 z_2161 x_56368 y_2397)
			(div_362 r_435 z_2161 y_2397))
		(div_362 (S_505 r_435) x_56368 y_2397))))
(assert (forall ((x_56368 Nat_616) (y_2397 Nat_616))
	(=> (lt_382 x_56368 y_2397)
	    (mod_364 x_56368 x_56368 y_2397))))
(assert (forall ((x_56368 Nat_616) (y_2397 Nat_616) (r_435 Nat_616) (z_2161 Nat_616))
	(=>	(and (ge_362 x_56368 y_2397)
			(minus_383 z_2161 x_56368 y_2397)
			(mod_364 r_435 z_2161 y_2397))
		(mod_364 r_435 x_56368 y_2397))))
(declare-datatypes ((list_261 0)) (((nil_291 ) (cons_261 (head_522 Nat_616) (tail_522 list_261)))))
(declare-fun diseqlist_261 (list_261 list_261) Bool)
(declare-fun head_523 (Nat_616 list_261) Bool)
(declare-fun tail_523 (list_261 list_261) Bool)
(declare-fun isnil_291 (list_261) Bool)
(declare-fun iscons_261 (list_261) Bool)
(assert (forall ((x_56370 Nat_616) (x_56371 list_261))
	(head_523 x_56370 (cons_261 x_56370 x_56371))))
(assert (forall ((x_56370 Nat_616) (x_56371 list_261))
	(tail_523 x_56371 (cons_261 x_56370 x_56371))))
(assert (isnil_291 nil_291))
(assert (forall ((x_56373 Nat_616) (x_56374 list_261))
	(iscons_261 (cons_261 x_56373 x_56374))))
(assert (forall ((x_56375 Nat_616) (x_56376 list_261))
	(diseqlist_261 nil_291 (cons_261 x_56375 x_56376))))
(assert (forall ((x_56377 Nat_616) (x_56378 list_261))
	(diseqlist_261 (cons_261 x_56377 x_56378) nil_291)))
(assert (forall ((x_56379 Nat_616) (x_56380 list_261) (x_56381 Nat_616) (x_56382 list_261))
	(=> (diseqNat_616 x_56379 x_56381)
	    (diseqlist_261 (cons_261 x_56379 x_56380) (cons_261 x_56381 x_56382)))))
(assert (forall ((x_56379 Nat_616) (x_56380 list_261) (x_56381 Nat_616) (x_56382 list_261))
	(=> (diseqlist_261 x_56380 x_56382)
	    (diseqlist_261 (cons_261 x_56379 x_56380) (cons_261 x_56381 x_56382)))))
(declare-datatypes ((Nat_615 0)) (((Z_2157 ) (S_504 (projS_218 Nat_615)))))
(declare-fun diseqNat_615 (Nat_615 Nat_615) Bool)
(declare-fun projS_219 (Nat_615 Nat_615) Bool)
(declare-fun isZ_471 (Nat_615) Bool)
(declare-fun isS_471 (Nat_615) Bool)
(assert (forall ((x_56384 Nat_615))
	(projS_219 x_56384 (S_504 x_56384))))
(assert (isZ_471 Z_2157))
(assert (forall ((x_56386 Nat_615))
	(isS_471 (S_504 x_56386))))
(assert (forall ((x_56387 Nat_615))
	(diseqNat_615 Z_2157 (S_504 x_56387))))
(assert (forall ((x_56388 Nat_615))
	(diseqNat_615 (S_504 x_56388) Z_2157)))
(assert (forall ((x_56389 Nat_615) (x_56390 Nat_615))
	(=> (diseqNat_615 x_56389 x_56390)
	    (diseqNat_615 (S_504 x_56389) (S_504 x_56390)))))
(declare-fun length_52 (Nat_615 list_261) Bool)
(assert (forall ((x_56356 Nat_615) (y_2394 Nat_616) (xs_693 list_261))
	(=> (length_52 x_56356 xs_693)
	    (length_52 (S_504 x_56356) (cons_261 y_2394 xs_693)))))
(assert (length_52 Z_2157 nil_291))
(declare-fun x_56349 (list_261 list_261 list_261) Bool)
(assert (forall ((x_56359 list_261) (z_2158 Nat_616) (xs_694 list_261) (y_2395 list_261))
	(=> (x_56349 x_56359 xs_694 y_2395)
	    (x_56349 (cons_261 z_2158 x_56359) (cons_261 z_2158 xs_694) y_2395))))
(assert (forall ((x_56360 list_261))
	(x_56349 x_56360 nil_291 x_56360)))
(declare-fun rotate_6 (list_261 Nat_615 list_261) Bool)
(assert (forall ((x_56361 list_261) (x_56362 list_261) (x_56352 Nat_616) (x_56353 list_261) (z_2159 Nat_615))
	(=>	(and (x_56349 x_56362 x_56353 (cons_261 x_56352 nil_291))
			(rotate_6 x_56361 z_2159 x_56362))
		(rotate_6 x_56361 (S_504 z_2159) (cons_261 x_56352 x_56353)))))
(assert (forall ((z_2159 Nat_615))
	(rotate_6 nil_291 (S_504 z_2159) nil_291)))
(assert (forall ((x_56365 list_261))
	(rotate_6 x_56365 Z_2157 x_56365)))
(assert (forall ((x_56366 Nat_615) (x_56367 list_261) (x_56354 list_261))
	(=>	(and true
			(diseqlist_261 x_56367 x_56354)
			(length_52 x_56366 x_56354)
			(rotate_6 x_56367 x_56366 x_56354))
		false)))
(check-sat)
